(set-info :status unsat)
(declare-const symbol_222 (_ BitVec 32))
(declare-const symbol_226 (_ BitVec 32))
(declare-const symbol_78 (_ BitVec 32))
(declare-const symbol_197 (_ BitVec 32))
(declare-const symbol_125 (_ BitVec 32))
(declare-const symbol_156 (_ BitVec 32))
(declare-const symbol_91 (_ BitVec 32))
(declare-const symbol_17 (_ BitVec 32))
(declare-const symbol_193 (_ BitVec 32))
(declare-const symbol_257 (_ BitVec 32))
(declare-const symbol_224 (_ BitVec 32))
(declare-const symbol_178 (_ BitVec 32))
(declare-const symbol_54 (_ BitVec 32))
(declare-const symbol_167 (_ BitVec 32))
(declare-const symbol_131 (_ BitVec 32))
(declare-const symbol_137 (_ BitVec 32))
(declare-const symbol_171 (_ BitVec 32))
(declare-const symbol_102 (_ BitVec 32))
(declare-const symbol_205 (_ BitVec 32))
(declare-const symbol_26 (_ BitVec 32))
(declare-const symbol_241 (_ BitVec 32))
(declare-const symbol_28 (_ BitVec 32))
(declare-const symbol_158 (_ BitVec 32))
(declare-const symbol_104 (_ BitVec 32))
(declare-const symbol_184 (_ BitVec 32))
(declare-const symbol_96 (_ BitVec 32))
(declare-const symbol_47 (_ BitVec 32))
(declare-const symbol_255 (_ BitVec 32))
(declare-const symbol_52 (_ BitVec 32))
(declare-const symbol_16 (_ BitVec 32))
(declare-const symbol_95 (_ BitVec 32))
(declare-const symbol_14 (_ BitVec 32))
(declare-const symbol_221 (_ BitVec 32))
(declare-const symbol_24 (_ BitVec 32))
(declare-const symbol_264 (_ BitVec 32))
(declare-const symbol_74 (_ BitVec 32))
(declare-const symbol_22 (_ BitVec 32))
(declare-const symbol_67 (_ BitVec 32))
(declare-const symbol_219 (_ BitVec 32))
(declare-const symbol_176 (_ BitVec 32))
(declare-const symbol_234 (_ BitVec 32))
(declare-const symbol_228 (_ BitVec 32))
(declare-const symbol_80 (_ BitVec 32))
(declare-const symbol_244 (_ BitVec 32))
(declare-const symbol_30 (_ BitVec 32))
(declare-const symbol_180 (_ BitVec 32))
(declare-const symbol_136 (_ BitVec 32))
(declare-const symbol_19 (_ BitVec 32))
(declare-const symbol_43 (_ BitVec 32))
(declare-const symbol_93 (_ BitVec 32))
(declare-const symbol_2 (_ BitVec 32))
(declare-const symbol_199 (_ BitVec 32))
(declare-const symbol_151 (_ BitVec 32))
(declare-const symbol_98 (_ BitVec 32))
(declare-const symbol_20 (_ BitVec 32))
(declare-const symbol_239 (_ BitVec 32))
(declare-const symbol_7 (_ BitVec 32))
(declare-const symbol_242 (_ BitVec 32))
(declare-const symbol_39 (_ BitVec 32))
(declare-const symbol_12 (_ BitVec 32))
(declare-const symbol_215 (_ BitVec 32))
(declare-const symbol_76 (_ BitVec 32))
(declare-const symbol_70 (_ BitVec 32))
(declare-const symbol_5 (_ BitVec 32))
(declare-const symbol_261 (_ BitVec 32))
(declare-const symbol_203 (_ BitVec 32))
(declare-const symbol_55 (_ BitVec 32))
(declare-const symbol_32 (_ BitVec 32))
(declare-const symbol_232 (_ BitVec 32))
(declare-const symbol_155 (_ BitVec 32))
(declare-const symbol_68 (_ BitVec 32))
(declare-const symbol_162 (_ BitVec 32))
(declare-const symbol_163 (_ BitVec 32))
(declare-const symbol_160 (_ BitVec 32))
(declare-const symbol_134 (_ BitVec 32))
(declare-const symbol_118 (_ BitVec 32))
(declare-const symbol_153 (_ BitVec 32))
(declare-const symbol_149 (_ BitVec 32))
(declare-const symbol_109 (_ BitVec 32))
(declare-const symbol_252 (_ BitVec 32))
(declare-const symbol_209 (_ BitVec 32))
(declare-const symbol_45 (_ BitVec 32))
(declare-const symbol_132 (_ BitVec 32))
(declare-const symbol_113 (_ BitVec 32))
(declare-const symbol_49 (_ BitVec 32))
(declare-const symbol_182 (_ BitVec 32))
(declare-const symbol_253 (_ BitVec 32))
(declare-const symbol_63 (_ BitVec 32))
(declare-const symbol_141 (_ BitVec 32))
(declare-const symbol_116 (_ BitVec 32))
(declare-const symbol_85 (_ BitVec 32))
(declare-const symbol_172 (_ BitVec 32))
(declare-const symbol_143 (_ BitVec 32))
(declare-const symbol_10 (_ BitVec 32))
(declare-const symbol_4 (_ BitVec 32))
(declare-const symbol_237 (_ BitVec 32))
(declare-const symbol_249 (_ BitVec 32))
(declare-const symbol_0 (_ BitVec 32))
(declare-const symbol_139 (_ BitVec 32))
(declare-const symbol_82 (_ BitVec 32))
(declare-const symbol_9 (_ BitVec 32))
(declare-const symbol_230 (_ BitVec 32))
(declare-const symbol_259 (_ BitVec 32))
(declare-const symbol_192 (_ BitVec 32))
(declare-const symbol_188 (_ BitVec 32))
(declare-const symbol_65 (_ BitVec 32))
(declare-const symbol_36 (_ BitVec 32))
(declare-const symbol_248 (_ BitVec 32))
(declare-const symbol_61 (_ BitVec 32))
(declare-const symbol_34 (_ BitVec 32))
(declare-const symbol_262 (_ BitVec 32))
(declare-const symbol_236 (_ BitVec 32))
(declare-const symbol_105 (_ BitVec 32))
(declare-const symbol_100 (_ BitVec 32))
(declare-const symbol_57 (_ BitVec 32))
(declare-const symbol_127 (_ BitVec 32))
(declare-const symbol_207 (_ BitVec 32))
(declare-const symbol_72 (_ BitVec 32))
(declare-const symbol_41 (_ BitVec 32))
(declare-const symbol_83 (_ BitVec 32))
(declare-const symbol_122 (_ BitVec 32))
(declare-const symbol_147 (_ BitVec 32))
(declare-const symbol_211 (_ BitVec 32))
(declare-const symbol_246 (_ BitVec 32))
(declare-const symbol_169 (_ BitVec 32))
(declare-const symbol_111 (_ BitVec 32))
(declare-const symbol_37 (_ BitVec 32))
(declare-const symbol_120 (_ BitVec 32))
(declare-const symbol_190 (_ BitVec 32))
(declare-const symbol_174 (_ BitVec 32))
(declare-const symbol_107 (_ BitVec 32))
(declare-const symbol_51 (_ BitVec 32))
(declare-const symbol_89 (_ BitVec 32))
(declare-const symbol_124 (_ BitVec 32))
(declare-const symbol_217 (_ BitVec 32))
(declare-const symbol_186 (_ BitVec 32))
(declare-const symbol_59 (_ BitVec 32))
(declare-const symbol_165 (_ BitVec 32))
(declare-const symbol_146 (_ BitVec 32))
(declare-const symbol_195 (_ BitVec 32))
(declare-const symbol_129 (_ BitVec 32))
(declare-const symbol_114 (_ BitVec 32))
(declare-const symbol_87 (_ BitVec 32))
(declare-const symbol_213 (_ BitVec 32))
(declare-const symbol_201 (_ BitVec 32))
(assert (= symbol_264 (_ bv3 32)))
(assert (not (not (= symbol_264 (_ bv5 32)))))
(assert (not (not (= symbol_262 (_ bv5 32)))))
(assert (not (not (= symbol_261 (_ bv5 32)))))
(assert (not (not (= symbol_259 (_ bv5 32)))))
(assert (not (not (= symbol_257 (_ bv5 32)))))
(assert (not (not (= symbol_255 (_ bv5 32)))))
(assert (not (not (= symbol_253 (_ bv5 32)))))
(assert (not (not (= symbol_252 (_ bv5 32)))))
(assert (not (not (= symbol_249 (_ bv5 32)))))
(assert (not (not (= symbol_248 (_ bv5 32)))))
(assert (not (not (= symbol_246 (_ bv5 32)))))
(assert (not (not (= symbol_244 (_ bv5 32)))))
(assert (not (not (= symbol_242 (_ bv5 32)))))
(assert (not (not (= symbol_241 (_ bv5 32)))))
(assert (not (not (= symbol_239 (_ bv5 32)))))
(assert (not (not (= symbol_237 (_ bv5 32)))))
(assert (not (not (= symbol_236 (_ bv5 32)))))
(assert (not (not (= symbol_234 (_ bv5 32)))))
(assert (not (not (= symbol_232 (_ bv5 32)))))
(assert (not (not (= symbol_230 (_ bv5 32)))))
(assert (not (not (= symbol_228 (_ bv5 32)))))
(assert (not (not (= symbol_226 (_ bv5 32)))))
(assert (not (not (= symbol_224 (_ bv5 32)))))
(assert (not (not (= symbol_222 (_ bv5 32)))))
(assert (not (not (= symbol_221 (_ bv5 32)))))
(assert (not (not (= symbol_219 (_ bv5 32)))))
(assert (not (not (= symbol_217 (_ bv5 32)))))
(assert (not (not (= symbol_215 (_ bv5 32)))))
(assert (not (not (= symbol_213 (_ bv5 32)))))
(assert (not (not (= symbol_211 (_ bv5 32)))))
(assert (not (not (= symbol_209 (_ bv5 32)))))
(assert (not (not (= symbol_207 (_ bv5 32)))))
(assert (not (not (= symbol_205 (_ bv5 32)))))
(assert (not (not (= symbol_203 (_ bv5 32)))))
(assert (not (not (= symbol_201 (_ bv5 32)))))
(assert (not (not (= symbol_199 (_ bv5 32)))))
(assert (not (not (= symbol_197 (_ bv5 32)))))
(assert (not (not (= symbol_195 (_ bv5 32)))))
(assert (not (not (= symbol_193 (_ bv5 32)))))
(assert (not (not (= symbol_192 (_ bv5 32)))))
(assert (not (not (= symbol_190 (_ bv5 32)))))
(assert (not (not (= symbol_188 (_ bv5 32)))))
(assert (not (not (= symbol_186 (_ bv5 32)))))
(assert (not (not (= symbol_184 (_ bv5 32)))))
(assert (not (not (= symbol_182 (_ bv5 32)))))
(assert (not (not (= symbol_180 (_ bv5 32)))))
(assert (not (not (= symbol_178 (_ bv5 32)))))
(assert (not (not (= symbol_176 (_ bv5 32)))))
(assert (not (not (= symbol_174 (_ bv5 32)))))
(assert (not (not (= symbol_172 (_ bv5 32)))))
(assert (not (not (= symbol_171 (_ bv5 32)))))
(assert (not (not (= symbol_169 (_ bv5 32)))))
(assert (not (not (= symbol_167 (_ bv5 32)))))
(assert (not (not (= symbol_165 (_ bv5 32)))))
(assert (not (not (= symbol_163 (_ bv5 32)))))
(assert (not (not (= symbol_162 (_ bv5 32)))))
(assert (not (not (= symbol_160 (_ bv5 32)))))
(assert (not (not (= symbol_158 (_ bv5 32)))))
(assert (not (not (= symbol_156 (_ bv5 32)))))
(assert (not (not (= symbol_155 (_ bv5 32)))))
(assert (not (not (= symbol_153 (_ bv5 32)))))
(assert (not (not (= symbol_151 (_ bv5 32)))))
(assert (not (not (= symbol_149 (_ bv5 32)))))
(assert (not (not (= symbol_147 (_ bv5 32)))))
(assert (not (not (= symbol_146 (_ bv5 32)))))
(assert (not (not (= symbol_143 (_ bv5 32)))))
(assert (not (not (= symbol_141 (_ bv5 32)))))
(assert (not (not (= symbol_139 (_ bv5 32)))))
(assert (not (not (= symbol_137 (_ bv5 32)))))
(assert (not (not (= symbol_136 (_ bv5 32)))))
(assert (not (not (= symbol_134 (_ bv5 32)))))
(assert (not (not (= symbol_132 (_ bv5 32)))))
(assert (not (not (= symbol_131 (_ bv5 32)))))
(assert (not (not (= symbol_129 (_ bv5 32)))))
(assert (not (not (= symbol_127 (_ bv5 32)))))
(assert (not (not (= symbol_125 (_ bv5 32)))))
(assert (not (not (= symbol_124 (_ bv5 32)))))
(assert (not (not (= symbol_122 (_ bv5 32)))))
(assert (not (not (= symbol_120 (_ bv5 32)))))
(assert (not (not (= symbol_118 (_ bv5 32)))))
(assert (not (not (= symbol_116 (_ bv5 32)))))
(assert (not (not (= symbol_114 (_ bv5 32)))))
(assert (not (not (= symbol_113 (_ bv5 32)))))
(assert (not (not (= symbol_111 (_ bv5 32)))))
(assert (not (not (= symbol_109 (_ bv5 32)))))
(assert (not (not (= symbol_107 (_ bv5 32)))))
(assert (not (not (= symbol_105 (_ bv5 32)))))
(assert (not (not (= symbol_104 (_ bv5 32)))))
(assert (not (not (= symbol_102 (_ bv5 32)))))
(assert (not (not (= symbol_100 (_ bv5 32)))))
(assert (not (not (= symbol_98 (_ bv5 32)))))
(assert (not (not (= symbol_96 (_ bv5 32)))))
(assert (not (not (= symbol_95 (_ bv5 32)))))
(assert (not (not (= symbol_93 (_ bv5 32)))))
(assert (not (not (= symbol_91 (_ bv5 32)))))
(assert (not (not (= symbol_89 (_ bv5 32)))))
(assert (not (not (= symbol_87 (_ bv5 32)))))
(assert (not (not (= symbol_85 (_ bv5 32)))))
(assert (not (not (= symbol_83 (_ bv5 32)))))
(assert (not (not (= symbol_82 (_ bv5 32)))))
(assert (not (not (= symbol_80 (_ bv5 32)))))
(assert (not (not (= symbol_78 (_ bv5 32)))))
(assert (not (not (= symbol_76 (_ bv5 32)))))
(assert (not (not (= symbol_74 (_ bv5 32)))))
(assert (not (not (= symbol_72 (_ bv5 32)))))
(assert (not (not (= symbol_70 (_ bv5 32)))))
(assert (not (not (= symbol_68 (_ bv5 32)))))
(assert (not (not (= symbol_67 (_ bv5 32)))))
(assert (not (not (= symbol_65 (_ bv5 32)))))
(assert (not (not (= symbol_63 (_ bv5 32)))))
(assert (not (not (= symbol_61 (_ bv5 32)))))
(assert (not (not (= symbol_59 (_ bv5 32)))))
(assert (not (not (= symbol_57 (_ bv5 32)))))
(assert (not (not (= symbol_55 (_ bv5 32)))))
(assert (not (not (= symbol_54 (_ bv5 32)))))
(assert (not (not (= symbol_52 (_ bv5 32)))))
(assert (not (not (= symbol_51 (_ bv5 32)))))
(assert (not (not (= symbol_49 (_ bv5 32)))))
(assert (not (not (= symbol_47 (_ bv5 32)))))
(assert (not (not (= symbol_45 (_ bv5 32)))))
(assert (not (not (= symbol_43 (_ bv5 32)))))
(assert (not (not (= symbol_41 (_ bv5 32)))))
(assert (not (not (= symbol_39 (_ bv5 32)))))
(assert (not (not (= symbol_37 (_ bv5 32)))))
(assert (not (not (= symbol_36 (_ bv5 32)))))
(assert (not (not (= symbol_34 (_ bv5 32)))))
(assert (not (not (= symbol_32 (_ bv5 32)))))
(assert (not (not (= symbol_30 (_ bv5 32)))))
(assert (not (not (= symbol_28 (_ bv5 32)))))
(assert (not (not (= symbol_26 (_ bv5 32)))))
(assert (not (not (= symbol_24 (_ bv5 32)))))
(assert (not (not (= symbol_22 (_ bv5 32)))))
(assert (not (not (= symbol_20 (_ bv5 32)))))
(assert (not (not (= symbol_19 (_ bv5 32)))))
(assert (not (not (= symbol_17 (_ bv5 32)))))
(assert (not (not (= symbol_16 (_ bv5 32)))))
(assert (not (not (= symbol_14 (_ bv5 32)))))
(assert (not (not (= symbol_12 (_ bv5 32)))))
(assert (not (not (= symbol_10 (_ bv5 32)))))
(assert (not (not (= symbol_9 (_ bv5 32)))))
(assert (not (not (= symbol_7 (_ bv5 32)))))
(assert (not (not (= symbol_5 (_ bv5 32)))))
(assert (not (not (= symbol_4 (_ bv5 32)))))
(assert (not (not (= symbol_2 (_ bv5 32)))))
(assert (not (not (= symbol_0 (_ bv1 32)))))
(assert (not (= symbol_0 (_ bv5 32))))
(check-sat)